Set parameter TokenServer to value "opt-license.discovery.wisc.edu"
Set parameter PreCrush to value 1
Set parameter LazyConstraints to value 1
Set parameter TimeLimit to value 600
Gurobi Optimizer version 9.5.1 build v9.5.1rc2 (linux64)
Thread count: 40 physical cores, 80 logical processors, using up to 32 threads
Optimize a model with 3025 rows, 2916 columns and 11610 nonzeros
Model fingerprint: 0x1ded34f9
Variable types: 0 continuous, 2916 integer (2916 binary)
Coefficient statistics:
  Matrix range     [1e+00, 1e+03]
  Objective range  [1e+00, 9e+00]
  Bounds range     [1e+00, 1e+00]
  RHS range        [1e+00, 6e+00]
Presolve removed 54 rows and 0 columns
Presolve time: 0.05s
Presolved: 2971 rows, 2916 columns, 11610 nonzeros
Variable types: 0 continuous, 2916 integer (2916 binary)

Root relaxation: objective 5.982620e+01, 1182 iterations, 0.07 seconds (0.05 work units)

    Nodes    |    Current Node    |     Objective Bounds      |     Work
 Expl Unexpl |  Obj  Depth IntInf | Incumbent    BestBd   Gap | It/Node Time

     0     0   59.82620    0   28          -   59.82620      -     -    0s
     0     0   61.74947    0   73          -   61.74947      -     -    1s
     0     0   61.78160    0   59          -   61.78160      -     -    1s
     0     0   61.96738    0  104          -   61.96738      -     -    2s
     0     0   61.98037    0  103          -   61.98037      -     -    2s
     0     0   61.98087    0  104          -   61.98087      -     -    2s
     0     0   62.03271    0  138          -   62.03271      -     -    3s
     0     0   62.07601    0  166          -   62.07601      -     -    3s
     0     0   62.08895    0  169          -   62.08895      -     -    3s
     0     0   62.09659    0  177          -   62.09659      -     -    4s
     0     0   62.09908    0  192          -   62.09908      -     -    4s
     0     0   62.15514    0  178          -   62.15514      -     -    4s
     0     0   62.16087    0  195          -   62.16087      -     -    5s
     0     0   62.16520    0  181          -   62.16520      -     -    5s
     0     0   62.16623    0  180          -   62.16623      -     -    6s
     0     0   62.16642    0  182          -   62.16642      -     -    6s
     0     0   62.20830    0  192          -   62.20830      -     -    6s
     0     0   62.20830    0  192          -   62.20830      -     -    7s
H    0     0                      63.0503976   62.20830  1.34%     -    8s
     0     0   62.22194    0   27   63.05040   62.22194  1.31%     -    8s
     0     0   62.22194    0  102   63.05040   62.22194  1.31%     -    8s
     0     0   62.22194    0  117   63.05040   62.22194  1.31%     -    8s
     0     0   62.22194    0  147   63.05040   62.22194  1.31%     -    9s
     0     0   62.22528    0  179   63.05040   62.22528  1.31%     -    9s
     0     0   62.22752    0  175   63.05040   62.22752  1.31%     -   10s
     0     0   62.27023    0  174   63.05040   62.27023  1.24%     -   10s
     0     0   62.27070    0  174   63.05040   62.27070  1.24%     -   11s
     0     0   62.27816    0  174   63.05040   62.27816  1.22%     -   11s
     0     0   62.27816    0  174   63.05040   62.27816  1.22%     -   11s
     0     0   62.29409    0   27   63.05040   62.29409  1.20%     -   12s
     0     0   62.29409    0  103   63.05040   62.29409  1.20%     -   12s
     0     0   62.29409    0   90   63.05040   62.29409  1.20%     -   13s
     0     0   62.29409    0  113   63.05040   62.29409  1.20%     -   13s
     0     0   62.29409    0  153   63.05040   62.29409  1.20%     -   13s
     0     0   62.29409    0  162   63.05040   62.29409  1.20%     -   14s
     0     0   62.29409    0  162   63.05040   62.29409  1.20%     -   14s
     0     2   62.29409    0  162   63.05040   62.29409  1.20%     -   15s
H   29     9                      62.8722520   62.60350  0.43%  24.6   19s

Cutting planes:
  User: 7
  Gomory: 1
  MIR: 6
  StrongCG: 5
  GUB cover: 9

Explored 57 nodes (5217 simplex iterations) in 21.95 seconds (0.70 work units)
Thread count was 32 (of 80 available processors)

Solution count 2: 62.8723 63.0504 

Optimal solution found (tolerance 1.00e-04)
Best objective 6.287225198771e+01, best bound 6.286844616818e+01, gap 0.0061%

User-callback calls 936, time in user-callback 20.36 sec
cuts :  10
